outputs/case_131.model.txt
audit_committee_approval_ratio = 0
audit_committee_exists = False
board_approval = False
board_approval_ratio = 0
act_2 = False
act_23 = False
item_4_compliant = True
broker_prohibited_acts_compliance = True
board_approval_if_no_audit_committee = True
act_12 = False
internal_control_approval_compliance = True
internal_control_executed = True
act_4 = False
audit_committee_approval = True
board_approval_internal_control = False
internal_control_compliance = True
act_24 = False
internal_control_established = True
act_29 = False
item_1_compliant = True
item_9_compliant = True
act_18 = False
act_14 = False
act_13 = False
act_3 = False
act_6 = False
violation_flag = False
item_10_compliant = True
item_5_compliant = True
act_7 = False
act_30 = False
act_1 = False
act_11 = False
act_25 = False
item_11_compliant = True
item_3_compliant = True
item_2_compliant = True
act_15 = False
act_5 = False
act_20 = False
solicitation_system_executed = True
violation_occurred = False
penalty_measures_authorized = False
act_17 = False
violation_167_3 = False
violation_167_2 = False
act_21 = False
solicitation_system_required_items_compliance = True
act_22 = False
audit_system_executed = True
act_27 = False
act_19 = False
audit_system_established = True
act_9 = False
act_10 = False
violation_163_financial_or_business_rule = False
item_7_compliant = True
act_8 = False
solicitation_system_established = True
item_8_compliant = True
act_28 = False
penalty = False
act_26 = False
act_16 = False
item_6_compliant = True